# vertex : x and y coordinates
1059 118
1033 148
991 159
990 204
958 212
1005 291
986 294
949 223
933 220
943 176
908 160
897 162
906 212
893 277
901 301
845 175
825 219
831 132
725 166
660 151
642 206
641 244
738 347
620 207
629 262
599 229
600 258
601 310
665 347
673 378
691 386
671 419
648 399
582 420
515 407
528 328
405 257
564 202
528 225
478 214
478 163
416 234
397 204
364 230
343 250
365 272
400 262
467 349
474 335
444 399
320 271
363 421
396 460
248 339
351 526
475 557
616 492
485 669
495 747
500 808
512 874
519 934
479 956
520 982
589 730
612 691
641 730
671 718
669 590
659 534
748 561
807 541
793 511
745 487
800 450
854 544
894 518
941 558
903 599
924 601
897 613
976 591
975 614
754 369
759 408
772 371
794 387
825 369
857 394
891 372
801 420
819 429
891 438
834 452
892 463
998 479
948 380
932 422
974 406
970 421
1025 368
663 774
610 812
542 822
680 789
685 837
655 852
743 816
789 812
855 800
885 795
946 732
922 702
943 664
984 702
1024 640
1059 554
974 774
1001 762
1016 743
1052 706
1080 674
1108 608
1104 479
1079 364
664 902
650 919
669 933
682 914
660 968
679 965
759 908
801 964
904 960
1021 946
796 874
831 914
887 836
987 882
1012 877
1012 819
1095 928
1052 872
1080 834
1120 852
1127 872
1175 899
1193 913
1195 858
1166 823
1150 809
1080 811
1120 719
1156 783
1185 780
1214 917
1167 608
1136 354
1042 284
1083 313
189 373
92 313
190 212
302 200
470 823
415 674
802 926
830 884
1092 904

# edge : vertex index pair and optional cost
# If you omit cost of the vertex pair, its euclidean distance is set to the cost.
0 1
1 2
1 158
2 3
3 4
3 5
4 7
4 9
5 6
5 158
6 7
6 14
6 96
6 100
7 8
8 12
8 13
9 10
10 11
11 12
11 17
12 15
13 14
13 16
14 22
15 16
15 17
16 18
17 18
18 19
19 20
19 40
20 21
20 23
21 22
21 24
22 30
22 83
23 25
24 26
25 26
25 37
26 27
27 28
28 29
29 30
29 32
30 31
31 32
31 56
31 73
32 33
33 34
34 35
34 49
35 36
36 41
36 46
37 38
38 39
39 40
39 41
40 42
41 42
42 43
43 44
43 163
44 45
44 50
45 46
45 47
46 48
47 48
47 49
49 52
50 51
50 53
51 52
52 54
53 54
53 160
54 55
55 56
55 57
56 69
57 58
57 165
58 59
58 64
59 60
59 164
59 103
60 61
60 103
60 106
61 62
61 63
61 126
62 63
62 164
63 129
64 66
64 65
65 66
65 68
66 67
66 101
67 68
67 112
68 69
68 70
70 71
70 80
71 72
71 75
72 73
72 75
73 74
74 76
74 90
75 76
76 77
77 79
77 81
78 79
78 80
79 82
80 113
81 82
82 115
83 84
83 85
84 90
85 86
85 87
86 87
86 90
87 88
87 89
88 89
89 96
89 97
90 91
91 92
91 93
92 94
93 94
94 95
95 99
95 116
96 98
97 99
98 99
98 100
100 124
101 102
101 104
102 103
104 105
104 107
106 125
107 108
108 109
108 135
109 110
109 111
110 117
110 137
111 112
111 117
112 113
113 114
114 115
114 119
115 116
116 123
117 118
118 119
118 140
119 120
120 121
121 122
121 152
122 123
122 156
123 124
124 157
124 159
125 126
125 128
126 127
127 128
127 129
127 130
128 131
129 130
130 132
131 166
131 135
132 133
132 136
132 166
133 134
133 136
133 138
134 139
134 141
134 147
135 167
136 166
136 167
137 138
137 167
138 139
139 140
139 142
140 154
141 146
141 168
142 143
142 168
143 144
143 151
144 145
144 149
145 146
145 168
146 148
147 148
147 155
148 149
149 150
150 151
150 153
151 152
152 153
153 154
154 155
154 156
156 157
158 159
160 161
161 162
162 163
